benchmarks_vrp/CMT1/tsp_classic/CMT1_1.vrp
NAME: CMT1_1
TYPE: CVRP
COMMENT: 524.61 - Cluster Nr.1
DIMENSION: 10
CAPACITY: 160
EDGE_WEIGHT_TYPE: EUC_2D
NODE_COORD_TYPE: TWOD_COORDS
NODE_COORD_SECTION: 
1 12 42
9 16 57
2 17 63
4 21 47
8 7 38
7 8 52
5 30 40
3 5 64
10 25 55
6 30 48
DEPOT_SECTION: 
5
-1
DEMAND_SECTION: 
5 0
1 21
7 10
6 15
4 15
10 17
2 19
8 28
9 16
3 11
EOF
