benchmarks_vrp/CMT1/tsp_classic/CMT1_1.tour
NAME: CMT1_1 solution
TYPE: TOUR
TOUR_SECTION:
5 4 1 8 7 3 2 9 10 6 -1
-1
EOF